GLPSOL--GLPK LP/MIP Solver 5.0
Parameter(s) specified in the command line:
 --lp ../modeles/20_254.lp --log 20_254.log
Reading problem data from '../modeles/20_254.lp'...
5161 rows, 10200 columns, 35620 non-zeros
5080 integer variables, all of which are binary
15387 lines were read
GLPK Integer Optimizer 5.0
5161 rows, 10200 columns, 35620 non-zeros
5080 integer variables, all of which are binary
Preprocessing...
5000 constraint coefficient(s) were reduced
5161 rows, 10180 columns, 35600 non-zeros
5080 integer variables, all of which are binary
Scaling...
 A: min|aij| =  2.480e-04  max|aij| =  4.000e+00  ratio =  1.613e+04
GM: min|aij| =  8.874e-02  max|aij| =  1.127e+01  ratio =  1.270e+02
EQ: min|aij| =  7.874e-03  max|aij| =  1.000e+00  ratio =  1.270e+02
2N: min|aij| =  7.812e-03  max|aij| =  1.750e+00  ratio =  2.240e+02
Constructing initial basis...
Size of triangular part is 5161
Solving LP relaxation...
GLPK Simplex Optimizer 5.0
5161 rows, 10180 columns, 35600 non-zeros
      0: obj =   4.000000000e+01 inf =   9.950e+01 (41)
Perturbing LP to avoid stalling [199]...
    339: obj =   2.726878120e-02 inf =   0.000e+00 (0)
Removing LP perturbation [1176]...
*  1176: obj =  -4.470404561e+00 inf =   1.962e-13 (0) 1
OPTIMAL LP SOLUTION FOUND
Integer optimization begins...
Long-step dual simplex will be used
+  1176: mip =     not found yet >=              -inf        (1; 0)
+  1336: >>>>>  -4.470404561e+00 >=  -4.470404561e+00   0.0% (155; 0)
+  1336: mip =  -4.470404561e+00 >=     tree is empty   0.0% (0; 309)
INTEGER OPTIMAL SOLUTION FOUND
Time used:   1.5 secs
Memory used: 14.7 Mb (15463314 bytes)
